
Gurobi 6.0.5 (linux64) logging started Wed Mar  9 21:12:26 2016


Gurobi 6.0.5 (linux64) logging started Wed Mar  9 21:12:56 2016


Gurobi 6.0.5 (linux64) logging started Wed Mar  9 21:15:06 2016


Gurobi 6.0.5 (linux64) logging started Wed Mar  9 21:15:41 2016

Optimize a model with 1 rows, 10 columns and 10 nonzeros
Coefficient statistics:
  Matrix range    [1e+00, 1e+00]
  Objective range [2e-04, 1e-02]
  Bounds range    [1e-02, 1e-02]
  RHS range       [5e-01, 5e-01]
Presolve removed 1 rows and 10 columns
Presolve time: 0.00s
Presolve: All rows and columns removed
Iteration    Objective       Primal Inf.    Dual Inf.      Time
       0    4.6160000e-04   0.000000e+00   0.000000e+00      0s

Solved in 0 iterations and 0.00 seconds
Optimal objective  4.616000000e-04

Gurobi 6.0.5 (linux64) logging started Wed Mar  9 21:18:03 2016

Optimize a model with 1 rows, 10 columns and 10 nonzeros
Coefficient statistics:
  Matrix range    [1e+00, 1e+00]
  Objective range [2e-04, 1e-02]
  Bounds range    [1e-02, 1e-02]
  RHS range       [5e-01, 5e-01]
Presolve removed 1 rows and 10 columns
Presolve time: 0.00s
Presolve: All rows and columns removed
Iteration    Objective       Primal Inf.    Dual Inf.      Time
       0    4.6160000e-04   0.000000e+00   0.000000e+00      0s

Solved in 0 iterations and 0.00 seconds
Optimal objective  4.616000000e-04

Gurobi 6.0.5 (linux64) logging started Wed Mar  9 21:18:43 2016

Warning: model has pending changes.
File 'foo.lp' does not contain these changes.
Optimize a model with 1 rows, 10 columns and 10 nonzeros
Coefficient statistics:
  Matrix range    [1e+00, 1e+00]
  Objective range [2e-04, 1e-02]
  Bounds range    [1e-02, 1e-02]
  RHS range       [5e-01, 5e-01]
Presolve removed 1 rows and 10 columns
Presolve time: 0.00s
Presolve: All rows and columns removed
Iteration    Objective       Primal Inf.    Dual Inf.      Time
       0    4.6160000e-04   0.000000e+00   0.000000e+00      0s

Solved in 0 iterations and 0.00 seconds
Optimal objective  4.616000000e-04

Gurobi 6.0.5 (linux64) logging started Wed Mar  9 21:19:25 2016

Optimize a model with 1 rows, 10 columns and 10 nonzeros
Coefficient statistics:
  Matrix range    [1e+00, 1e+00]
  Objective range [2e-04, 1e-02]
  Bounds range    [1e-02, 1e-02]
  RHS range       [5e-01, 5e-01]
Presolve removed 1 rows and 10 columns
Presolve time: 0.00s
Presolve: All rows and columns removed
Iteration    Objective       Primal Inf.    Dual Inf.      Time
       0    4.6160000e-04   0.000000e+00   0.000000e+00      0s

Solved in 0 iterations and 0.00 seconds
Optimal objective  4.616000000e-04

Gurobi 6.0.5 (linux64) logging started Wed Mar  9 21:20:07 2016

Optimize a model with 1 rows, 10 columns and 10 nonzeros
Coefficient statistics:
  Matrix range    [1e+00, 1e+00]
  Objective range [2e-04, 1e-02]
  Bounds range    [1e-02, 1e-02]
  RHS range       [5e-01, 5e-01]
Presolve removed 1 rows and 10 columns
Presolve time: 0.00s
Presolve: All rows and columns removed
Iteration    Objective       Primal Inf.    Dual Inf.      Time
       0    4.6160000e-04   0.000000e+00   0.000000e+00      0s

Solved in 0 iterations and 0.00 seconds
Optimal objective  4.616000000e-04

Gurobi 6.0.5 (linux64) logging started Wed Mar  9 21:21:21 2016

Read LP format model from file foo.lp
Reading time = 0.00 seconds
(null): 1 rows, 10 columns, 10 nonzeros
Optimize a model with 1 rows, 10 columns and 10 nonzeros
Coefficient statistics:
  Matrix range    [1e+00, 1e+00]
  Objective range [2e-04, 1e-02]
  Bounds range    [1e-02, 1e-02]
  RHS range       [5e-01, 5e-01]
Presolve removed 1 rows and 10 columns
Presolve time: 0.00s
Presolve: All rows and columns removed
Iteration    Objective       Primal Inf.    Dual Inf.      Time
       0    4.6160000e-04   0.000000e+00   0.000000e+00      0s

Solved in 0 iterations and 0.00 seconds
Optimal objective  4.616000000e-04

Gurobi 6.0.5 (linux64) logging started Wed Mar  9 21:21:41 2016

Optimize a model with 1 rows, 10 columns and 10 nonzeros
Coefficient statistics:
  Matrix range    [1e+00, 1e+00]
  Objective range [2e-04, 1e-02]
  Bounds range    [1e-02, 1e-02]
  RHS range       [5e-02, 5e-02]
Presolve time: 0.00s
Presolved: 1 rows, 10 columns, 10 nonzeros

Iteration    Objective       Primal Inf.    Dual Inf.      Time
       0    4.6160000e-04   5.000000e-02   0.000000e+00      0s
       1    4.1690000e-04   0.000000e+00   0.000000e+00      0s

Solved in 1 iterations and 0.00 seconds
Optimal objective  4.169000000e-04

Gurobi 6.0.5 (linux64) logging started Wed Mar  9 21:21:49 2016

Read LP format model from file foo.lp
Reading time = 0.00 seconds
(null): 1 rows, 10 columns, 10 nonzeros
Optimize a model with 1 rows, 10 columns and 10 nonzeros
Coefficient statistics:
  Matrix range    [1e+00, 1e+00]
  Objective range [2e-04, 1e-02]
  Bounds range    [1e-02, 1e-02]
  RHS range       [5e-02, 5e-02]
Presolve time: 0.00s
Presolved: 1 rows, 10 columns, 10 nonzeros

Iteration    Objective       Primal Inf.    Dual Inf.      Time
       0    4.6160000e-04   5.000000e-02   0.000000e+00      0s
       1    4.1690000e-04   0.000000e+00   0.000000e+00      0s

Solved in 1 iterations and 0.00 seconds
Optimal objective  4.169000000e-04

Gurobi 6.0.5 (linux64) logging started Wed Mar  9 21:22:28 2016

Optimize a model with 1 rows, 10 columns and 10 nonzeros
Coefficient statistics:
  Matrix range    [1e+00, 1e+00]
  Objective range [2e-04, 1e-02]
  Bounds range    [1e-02, 1e-02]
  RHS range       [1e-02, 1e-02]
Presolve removed 1 rows and 10 columns
Presolve time: 0.00s
Presolve: All rows and columns removed
Iteration    Objective       Primal Inf.    Dual Inf.      Time
       0    1.4190000e-04   0.000000e+00   0.000000e+00      0s

Solved in 0 iterations and 0.00 seconds
Optimal objective  1.419000000e-04

Gurobi 6.0.5 (linux64) logging started Wed Mar  9 21:22:35 2016

Read LP format model from file foo.lp
Reading time = 0.00 seconds
(null): 1 rows, 10 columns, 10 nonzeros
Optimize a model with 1 rows, 10 columns and 10 nonzeros
Coefficient statistics:
  Matrix range    [1e+00, 1e+00]
  Objective range [2e-04, 1e-02]
  Bounds range    [1e-02, 1e-02]
  RHS range       [1e-02, 1e-02]
Presolve removed 1 rows and 10 columns
Presolve time: 0.00s
Presolve: All rows and columns removed
Iteration    Objective       Primal Inf.    Dual Inf.      Time
       0    1.4190000e-04   0.000000e+00   0.000000e+00      0s

Solved in 0 iterations and 0.00 seconds
Optimal objective  1.419000000e-04

Gurobi 6.0.5 (linux64) logging started Wed Mar  9 21:22:59 2016

Read LP format model from file foo.lp
Reading time = 0.00 seconds
(null): 1 rows, 10 columns, 10 nonzeros
Optimize a model with 1 rows, 10 columns and 10 nonzeros
Coefficient statistics:
  Matrix range    [1e+00, 1e+00]
  Objective range [2e-04, 1e-02]
  Bounds range    [1e-02, 1e-02]
  RHS range       [1e-02, 1e-02]
Presolve removed 1 rows and 10 columns
Presolve time: 0.00s
Presolve: All rows and columns removed
Iteration    Objective       Primal Inf.    Dual Inf.      Time
       0    1.4190000e-04   0.000000e+00   0.000000e+00      0s

Solved in 0 iterations and 0.00 seconds
Optimal objective  1.419000000e-04

Gurobi 6.0.5 (linux64) logging started Wed Mar  9 21:23:10 2016

Optimize a model with 1 rows, 10 columns and 10 nonzeros
Coefficient statistics:
  Matrix range    [1e+00, 1e+00]
  Objective range [2e-04, 3e-02]
  Bounds range    [1e-02, 1e-02]
  RHS range       [1e-02, 1e-02]
Presolve removed 1 rows and 10 columns
Presolve time: 0.00s
Presolve: All rows and columns removed
Iteration    Objective       Primal Inf.    Dual Inf.      Time
       0    3.3880000e-04   0.000000e+00   0.000000e+00      0s

Solved in 0 iterations and 0.00 seconds
Optimal objective  3.388000000e-04

Gurobi 6.0.5 (linux64) logging started Wed Mar  9 21:23:22 2016

Read LP format model from file foo.lp
Reading time = 0.00 seconds
(null): 1 rows, 10 columns, 10 nonzeros
Optimize a model with 1 rows, 10 columns and 10 nonzeros
Coefficient statistics:
  Matrix range    [1e+00, 1e+00]
  Objective range [2e-04, 3e-02]
  Bounds range    [1e-02, 1e-02]
  RHS range       [1e-02, 1e-02]
Presolve removed 1 rows and 10 columns
Presolve time: 0.00s
Presolve: All rows and columns removed
Iteration    Objective       Primal Inf.    Dual Inf.      Time
       0    3.3880000e-04   0.000000e+00   0.000000e+00      0s

Solved in 0 iterations and 0.00 seconds
Optimal objective  3.388000000e-04

Gurobi 6.0.5 (linux64) logging started Wed Mar  9 21:23:34 2016

Read LP format model from file foo.lp
Reading time = 0.00 seconds
(null): 1 rows, 10 columns, 10 nonzeros
Optimize a model with 1 rows, 10 columns and 10 nonzeros
Coefficient statistics:
  Matrix range    [1e+00, 1e+00]
  Objective range [2e-04, 3e-02]
  Bounds range    [1e-02, 1e-02]
  RHS range       [1e-02, 1e-02]
Presolve removed 1 rows and 10 columns
Presolve time: 0.00s
Presolve: All rows and columns removed
Iteration    Objective       Primal Inf.    Dual Inf.      Time
       0    3.3880000e-04   0.000000e+00   0.000000e+00      0s

Solved in 0 iterations and 0.00 seconds
Optimal objective  3.388000000e-04

Gurobi 6.0.5 (linux64) logging started Wed Mar  9 21:23:35 2016

Optimize a model with 1 rows, 10 columns and 10 nonzeros
Coefficient statistics:
  Matrix range    [1e+00, 1e+00]
  Objective range [2e-04, 3e-02]
  Bounds range    [1e-02, 1e-02]
  RHS range       [3e-02, 3e-02]
Presolve time: 0.00s
Presolved: 1 rows, 10 columns, 10 nonzeros

Iteration    Objective       Primal Inf.    Dual Inf.      Time
       0    7.0360000e-04   7.000000e-02   0.000000e+00      0s
Warning: Markowitz tolerance tightened to 0.125
       1    5.4800000e-04   0.000000e+00   0.000000e+00      0s

Solved in 1 iterations and 0.00 seconds
Optimal objective  5.480000000e-04

Gurobi 6.0.5 (linux64) logging started Wed Mar  9 21:27:54 2016

Optimize a model with 1 rows, 10 columns and 10 nonzeros
Coefficient statistics:
  Matrix range    [1e+00, 1e+00]
  Objective range [2e-04, 3e-02]
  Bounds range    [1e-02, 1e-02]
  RHS range       [3e-02, 3e-02]
Presolve time: 0.00s
Presolved: 1 rows, 10 columns, 10 nonzeros

Iteration    Objective       Primal Inf.    Dual Inf.      Time
       0    7.0360000e-04   7.000000e-02   0.000000e+00      0s
Warning: Markowitz tolerance tightened to 0.125
       1    5.4800000e-04   0.000000e+00   0.000000e+00      0s

Solved in 1 iterations and 0.00 seconds
Optimal objective  5.480000000e-04

Gurobi 6.0.5 (linux64) logging started Wed Mar  9 21:28:33 2016

Optimize a model with 1 rows, 10 columns and 10 nonzeros
Coefficient statistics:
  Matrix range    [1e+00, 1e+00]
  Objective range [2e-04, 3e-02]
  Bounds range    [1e-02, 1e-02]
  RHS range       [3e-02, 3e-02]
Presolve time: 0.00s
Presolved: 1 rows, 10 columns, 10 nonzeros

Iteration    Objective       Primal Inf.    Dual Inf.      Time
       0    7.0360000e-04   7.000000e-02   0.000000e+00      0s
Warning: Markowitz tolerance tightened to 0.125
       1    5.4800000e-04   0.000000e+00   0.000000e+00      0s

Solved in 1 iterations and 0.00 seconds
Optimal objective  5.480000000e-04

Gurobi 6.0.5 (linux64) logging started Wed Mar  9 21:28:50 2016

Optimize a model with 1 rows, 10 columns and 10 nonzeros
Coefficient statistics:
  Matrix range    [1e+00, 1e+00]
  Objective range [2e-04, 3e-02]
  Bounds range    [1e-02, 1e-02]
  RHS range       [3e-02, 3e-02]
Presolve time: 0.00s
Presolved: 1 rows, 10 columns, 10 nonzeros

Iteration    Objective       Primal Inf.    Dual Inf.      Time
       0    7.0360000e-04   7.000000e-02   0.000000e+00      0s
Warning: Markowitz tolerance tightened to 0.125
       1    5.4800000e-04   0.000000e+00   0.000000e+00      0s

Solved in 1 iterations and 0.00 seconds
Optimal objective  5.480000000e-04

Gurobi 6.0.5 (linux64) logging started Wed Mar  9 21:29:28 2016

Read LP format model from file foo.lp
Reading time = 0.00 seconds
(null): 1 rows, 10 columns, 10 nonzeros
Optimize a model with 1 rows, 10 columns and 10 nonzeros
Coefficient statistics:
  Matrix range    [1e+00, 1e+00]
  Objective range [2e-04, 3e-02]
  Bounds range    [1e-02, 1e-02]
  RHS range       [3e-02, 3e-02]
Presolve time: 0.00s
Presolved: 1 rows, 10 columns, 10 nonzeros

Iteration    Objective       Primal Inf.    Dual Inf.      Time
       0    7.0360000e-04   7.000000e-02   0.000000e+00      0s
Warning: Markowitz tolerance tightened to 0.125
       1    5.4800000e-04   0.000000e+00   0.000000e+00      0s

Solved in 1 iterations and 0.00 seconds
Optimal objective  5.480000000e-04

Gurobi 6.0.5 (linux64) logging started Wed Mar  9 21:29:34 2016

Optimize a model with 1 rows, 10 columns and 10 nonzeros
Coefficient statistics:
  Matrix range    [1e+00, 1e+00]
  Objective range [2e-04, 3e-02]
  Bounds range    [1e-02, 1e-02]
  RHS range       [3e-02, 3e-02]
Presolve time: 0.00s
Presolved: 1 rows, 10 columns, 10 nonzeros

Iteration    Objective       Primal Inf.    Dual Inf.      Time
       0    7.0360000e-04   7.000000e-02   0.000000e+00      0s
Warning: Markowitz tolerance tightened to 0.125
       1    5.4800000e-04   0.000000e+00   0.000000e+00      0s

Solved in 1 iterations and 0.00 seconds
Optimal objective  5.480000000e-04

Gurobi 6.0.5 (linux64) logging started Wed Mar  9 21:30:03 2016

Optimize a model with 1 rows, 10 columns and 10 nonzeros
Coefficient statistics:
  Matrix range    [1e+00, 1e+00]
  Objective range [2e-04, 3e-02]
  Bounds range    [1e-02, 1e-02]
  RHS range       [5e-02, 5e-02]
Presolve time: 0.00s
Presolved: 1 rows, 10 columns, 10 nonzeros

Iteration    Objective       Primal Inf.    Dual Inf.      Time
       0    7.0360000e-04   5.000000e-02   0.000000e+00      0s
       1    6.5890000e-04   0.000000e+00   0.000000e+00      0s

Solved in 1 iterations and 0.00 seconds
Optimal objective  6.589000000e-04

Gurobi 6.0.5 (linux64) logging started Wed Mar  9 21:31:17 2016

Optimize a model with 1 rows, 10 columns and 10 nonzeros
Coefficient statistics:
  Matrix range    [1e+00, 1e+00]
  Objective range [2e-04, 3e-02]
  Bounds range    [1e-02, 1e-02]
  RHS range       [5e-02, 5e-02]
Presolve time: 0.00s
Presolved: 1 rows, 10 columns, 10 nonzeros

Iteration    Objective       Primal Inf.    Dual Inf.      Time
       0    7.0360000e-04   5.000000e-02   0.000000e+00      0s
       1    6.5890000e-04   0.000000e+00   0.000000e+00      0s

Solved in 1 iterations and 0.00 seconds
Optimal objective  6.589000000e-04

Gurobi 6.0.5 (linux64) logging started Wed Mar  9 21:31:28 2016

Optimize a model with 1 rows, 10 columns and 10 nonzeros
Coefficient statistics:
  Matrix range    [1e+00, 1e+00]
  Objective range [2e-04, 3e-02]
  Bounds range    [1e-02, 1e-02]
  RHS range       [5e-02, 5e-02]
Presolve time: 0.00s
Presolved: 1 rows, 10 columns, 10 nonzeros

Iteration    Objective       Primal Inf.    Dual Inf.      Time
       0    7.0360000e-04   5.000000e-02   0.000000e+00      0s
       1    6.5890000e-04   0.000000e+00   0.000000e+00      0s

Solved in 1 iterations and 0.00 seconds
Optimal objective  6.589000000e-04

Gurobi 6.0.5 (linux64) logging started Wed Mar  9 21:33:38 2016

Optimize a model with 1 rows, 10 columns and 10 nonzeros
Coefficient statistics:
  Matrix range    [1e+00, 1e+00]
  Objective range [2e-04, 3e-02]
  Bounds range    [1e-02, 1e-02]
  RHS range       [5e-02, 5e-02]
Presolve time: 0.00s
Presolved: 1 rows, 10 columns, 10 nonzeros

Iteration    Objective       Primal Inf.    Dual Inf.      Time
       0    7.0360000e-04   5.000000e-02   0.000000e+00      0s
       1    6.5890000e-04   0.000000e+00   0.000000e+00      0s

Solved in 1 iterations and 0.00 seconds
Optimal objective  6.589000000e-04

Gurobi 6.0.5 (linux64) logging started Wed Mar  9 21:33:58 2016

Optimize a model with 1 rows, 10 columns and 10 nonzeros
Coefficient statistics:
  Matrix range    [1e+00, 1e+00]
  Objective range [2e-04, 3e-02]
  Bounds range    [1e-02, 1e-02]
  RHS range       [5e-02, 5e-02]
Presolve time: 0.00s
Presolved: 1 rows, 10 columns, 10 nonzeros

Iteration    Objective       Primal Inf.    Dual Inf.      Time
       0    7.0360000e-04   5.000000e-02   0.000000e+00      0s
       1    6.5890000e-04   0.000000e+00   0.000000e+00      0s

Solved in 1 iterations and 0.00 seconds
Optimal objective  6.589000000e-04

Gurobi 6.0.5 (linux64) logging started Wed Mar  9 21:34:22 2016

Optimize a model with 1 rows, 10 columns and 10 nonzeros
Coefficient statistics:
  Matrix range    [1e+00, 1e+00]
  Objective range [2e-04, 3e-02]
  Bounds range    [1e-02, 1e-02]
  RHS range       [5e-02, 5e-02]
Presolve time: 0.00s
Presolved: 1 rows, 10 columns, 10 nonzeros

Iteration    Objective       Primal Inf.    Dual Inf.      Time
       0    7.0360000e-04   5.000000e-02   0.000000e+00      0s
       1    6.5890000e-04   0.000000e+00   0.000000e+00      0s

Solved in 1 iterations and 0.00 seconds
Optimal objective  6.589000000e-04

Gurobi 6.0.5 (linux64) logging started Wed Mar  9 21:34:43 2016

Optimize a model with 1 rows, 10 columns and 10 nonzeros
Coefficient statistics:
  Matrix range    [1e+00, 1e+00]
  Objective range [2e-04, 3e-02]
  Bounds range    [1e-02, 1e-02]
  RHS range       [5e-02, 5e-02]
Presolve time: 0.00s
Presolved: 1 rows, 10 columns, 10 nonzeros

Iteration    Objective       Primal Inf.    Dual Inf.      Time
       0    7.0360000e-04   5.000000e-02   0.000000e+00      0s
       1    6.5890000e-04   0.000000e+00   0.000000e+00      0s

Solved in 1 iterations and 0.00 seconds
Optimal objective  6.589000000e-04

Gurobi 6.0.5 (linux64) logging started Wed Mar  9 21:34:58 2016

Optimize a model with 1 rows, 10 columns and 10 nonzeros
Coefficient statistics:
  Matrix range    [1e+00, 1e+00]
  Objective range [2e-04, 3e-02]
  Bounds range    [1e-02, 1e-02]
  RHS range       [5e-02, 5e-02]
Presolve time: 0.00s
Presolved: 1 rows, 10 columns, 10 nonzeros

Iteration    Objective       Primal Inf.    Dual Inf.      Time
       0    7.0360000e-04   5.000000e-02   0.000000e+00      0s
       1    6.5890000e-04   0.000000e+00   0.000000e+00      0s

Solved in 1 iterations and 0.00 seconds
Optimal objective  6.589000000e-04

Gurobi 6.0.5 (linux64) logging started Wed Mar  9 21:35:13 2016

Optimize a model with 1 rows, 10 columns and 10 nonzeros
Coefficient statistics:
  Matrix range    [1e+00, 1e+00]
  Objective range [2e-04, 3e-02]
  Bounds range    [1e-02, 1e-02]
  RHS range       [5e-02, 5e-02]
Presolve time: 0.00s
Presolved: 1 rows, 10 columns, 10 nonzeros

Iteration    Objective       Primal Inf.    Dual Inf.      Time
       0    7.0360000e-04   5.000000e-02   0.000000e+00      0s
       1    6.5890000e-04   0.000000e+00   0.000000e+00      0s

Solved in 1 iterations and 0.00 seconds
Optimal objective  6.589000000e-04

Gurobi 6.0.5 (linux64) logging started Wed Mar  9 21:35:24 2016

Optimize a model with 1 rows, 10 columns and 10 nonzeros
Coefficient statistics:
  Matrix range    [1e+00, 1e+00]
  Objective range [2e-04, 3e-02]
  Bounds range    [1e-02, 1e-02]
  RHS range       [5e-02, 5e-02]
Presolve time: 0.00s
Presolved: 1 rows, 10 columns, 10 nonzeros

Iteration    Objective       Primal Inf.    Dual Inf.      Time
       0    7.0360000e-04   5.000000e-02   0.000000e+00      0s
       1    6.5890000e-04   0.000000e+00   0.000000e+00      0s

Solved in 1 iterations and 0.00 seconds
Optimal objective  6.589000000e-04

Gurobi 6.5.0 (linux64) logging started Wed Mar 23 12:22:11 2016

Optimize a model with 1 rows, 10 columns and 10 nonzeros
Coefficient statistics:
  Matrix range    [1e+00, 1e+00]
  Objective range [2e-04, 3e-02]
  Bounds range    [1e-02, 1e-02]
  RHS range       [5e-02, 5e-02]
Presolve time: 0.00s
Presolved: 1 rows, 10 columns, 10 nonzeros

Iteration    Objective       Primal Inf.    Dual Inf.      Time
       0    7.0360000e-04   5.000000e-02   0.000000e+00      0s
       1    6.5890000e-04   0.000000e+00   0.000000e+00      0s

Solved in 1 iterations and 0.00 seconds
Optimal objective  6.589000000e-04

Gurobi 6.5.0 (linux64) logging started Wed Mar 23 12:22:34 2016

Optimize a model with 1 rows, 10 columns and 10 nonzeros
Coefficient statistics:
  Matrix range    [1e+00, 1e+00]
  Objective range [2e-04, 3e-02]
  Bounds range    [1e-02, 1e-02]
  RHS range       [5e-02, 5e-02]
Presolve time: 0.00s
Presolved: 1 rows, 10 columns, 10 nonzeros

Iteration    Objective       Primal Inf.    Dual Inf.      Time
       0    7.0360000e-04   5.000000e-02   0.000000e+00      0s
       1    6.5890000e-04   0.000000e+00   0.000000e+00      0s

Solved in 1 iterations and 0.00 seconds
Optimal objective  6.589000000e-04

Gurobi 6.5.0 (linux64) logging started Wed Mar 23 13:13:22 2016

Optimize a model with 1 rows, 10 columns and 10 nonzeros
Coefficient statistics:
  Matrix range    [1e+00, 1e+00]
  Objective range [2e-04, 3e-02]
  Bounds range    [1e-02, 1e-02]
  RHS range       [5e-02, 5e-02]
Presolve time: 0.00s
Presolved: 1 rows, 10 columns, 10 nonzeros

Iteration    Objective       Primal Inf.    Dual Inf.      Time
       0    7.0360000e-04   5.000000e-02   0.000000e+00      0s
       1    6.5890000e-04   0.000000e+00   0.000000e+00      0s

Solved in 1 iterations and 0.00 seconds
Optimal objective  6.589000000e-04

Gurobi 6.5.0 (linux64) logging started Wed Mar 23 13:14:54 2016

Optimize a model with 1 rows, 10 columns and 10 nonzeros
Coefficient statistics:
  Matrix range    [1e+00, 1e+00]
  Objective range [2e-04, 3e-02]
  Bounds range    [1e-02, 1e-02]
  RHS range       [5e-02, 5e-02]
Presolve time: 0.00s
Presolved: 1 rows, 10 columns, 10 nonzeros

Iteration    Objective       Primal Inf.    Dual Inf.      Time
       0    7.0360000e-04   5.000000e-02   0.000000e+00      0s
       1    6.5890000e-04   0.000000e+00   0.000000e+00      0s

Solved in 1 iterations and 0.00 seconds
Optimal objective  6.589000000e-04

Gurobi 6.5.0 (linux64) logging started Wed Mar 23 13:15:04 2016

Optimize a model with 1 rows, 10 columns and 10 nonzeros
Coefficient statistics:
  Matrix range    [1e+00, 1e+00]
  Objective range [2e-04, 3e-02]
  Bounds range    [1e-02, 1e-02]
  RHS range       [5e-02, 5e-02]
Presolve time: 0.00s
Presolved: 1 rows, 10 columns, 10 nonzeros

Iteration    Objective       Primal Inf.    Dual Inf.      Time
       0    7.0360000e-04   5.000000e-02   0.000000e+00      0s
       1    6.5890000e-04   0.000000e+00   0.000000e+00      0s

Solved in 1 iterations and 0.00 seconds
Optimal objective  6.589000000e-04

Gurobi 6.5.0 (linux64) logging started Wed Mar 23 13:15:54 2016

Optimize a model with 1 rows, 10 columns and 10 nonzeros
Coefficient statistics:
  Matrix range    [1e+00, 1e+00]
  Objective range [1e-02, 3e-01]
  Bounds range    [1e-02, 1e-02]
  RHS range       [5e-02, 5e-02]
Presolve removed 0 rows and 2 columns
Presolve time: 0.00s
Presolved: 1 rows, 8 columns, 8 nonzeros

Iteration    Objective       Primal Inf.    Dual Inf.      Time
       0    1.0000000e-02   5.000000e-02   0.000000e+00      0s
Warning: Markowitz tolerance tightened to 0.125
       1    9.1000000e-03   0.000000e+00   0.000000e+00      0s

Solved in 1 iterations and 0.00 seconds
Optimal objective  9.100000000e-03

Gurobi 6.5.0 (linux64) logging started Wed Mar 23 13:17:09 2016

Optimize a model with 1 rows, 10 columns and 10 nonzeros
Coefficient statistics:
  Matrix range    [1e+00, 1e+00]
  Objective range [1e-02, 3e-01]
  Bounds range    [1e-02, 1e-02]
  RHS range       [5e-02, 5e-02]
Presolve removed 0 rows and 2 columns
Presolve time: 0.00s
Presolved: 1 rows, 8 columns, 8 nonzeros

Iteration    Objective       Primal Inf.    Dual Inf.      Time
       0    1.0000000e-02   5.000000e-02   0.000000e+00      0s
Warning: Markowitz tolerance tightened to 0.125
       1    9.1000000e-03   0.000000e+00   0.000000e+00      0s

Solved in 1 iterations and 0.00 seconds
Optimal objective  9.100000000e-03

Gurobi 6.5.0 (linux64) logging started Wed Mar 23 13:17:29 2016

Optimize a model with 1 rows, 10 columns and 10 nonzeros
Coefficient statistics:
  Matrix range    [1e+00, 1e+00]
  Objective range [1e-02, 3e-01]
  Bounds range    [1e-02, 1e-02]
  RHS range       [5e-02, 5e-02]
Presolve removed 0 rows and 2 columns
Presolve time: 0.00s
Presolved: 1 rows, 8 columns, 8 nonzeros

Iteration    Objective       Primal Inf.    Dual Inf.      Time
       0    1.0000000e-02   5.000000e-02   0.000000e+00      0s
Warning: Markowitz tolerance tightened to 0.125
       1    9.1000000e-03   0.000000e+00   0.000000e+00      0s

Solved in 1 iterations and 0.00 seconds
Optimal objective  9.100000000e-03

Gurobi 6.5.0 (linux64) logging started Wed Mar 23 13:17:45 2016

Optimize a model with 1 rows, 10 columns and 10 nonzeros
Coefficient statistics:
  Matrix range    [1e+00, 1e+00]
  Objective range [1e-02, 3e-01]
  Bounds range    [1e-02, 1e-02]
  RHS range       [5e-02, 5e-02]
Presolve removed 0 rows and 2 columns
Presolve time: 0.00s
Presolved: 1 rows, 8 columns, 8 nonzeros

Iteration    Objective       Primal Inf.    Dual Inf.      Time
       0    1.0000000e-02   5.000000e-02   0.000000e+00      0s
Warning: Markowitz tolerance tightened to 0.125
       1    9.1000000e-03   0.000000e+00   0.000000e+00      0s

Solved in 1 iterations and 0.00 seconds
Optimal objective  9.100000000e-03

Gurobi 6.5.0 (linux64) logging started Wed Mar 23 13:17:53 2016

Optimize a model with 1 rows, 10 columns and 10 nonzeros
Coefficient statistics:
  Matrix range    [1e+00, 1e+00]
  Objective range [1e-02, 3e-01]
  Bounds range    [1e-02, 1e-02]
  RHS range       [5e-02, 5e-02]
Presolve removed 0 rows and 2 columns
Presolve time: 0.00s
Presolved: 1 rows, 8 columns, 8 nonzeros

Iteration    Objective       Primal Inf.    Dual Inf.      Time
       0    1.0000000e-02   5.000000e-02   0.000000e+00      0s
Warning: Markowitz tolerance tightened to 0.125
       1    9.1000000e-03   0.000000e+00   0.000000e+00      0s

Solved in 1 iterations and 0.00 seconds
Optimal objective  9.100000000e-03

Gurobi 6.5.0 (linux64) logging started Wed Mar 23 13:19:01 2016

Optimize a model with 1 rows, 10 columns and 10 nonzeros
Coefficient statistics:
  Matrix range    [1e+00, 1e+00]
  Objective range [1e-02, 3e-01]
  Bounds range    [1e-02, 1e-02]
  RHS range       [5e-02, 5e-02]
Presolve removed 0 rows and 2 columns
Presolve time: 0.00s
Presolved: 1 rows, 8 columns, 8 nonzeros

Iteration    Objective       Primal Inf.    Dual Inf.      Time
       0    1.0000000e-02   5.000000e-02   0.000000e+00      0s
Warning: Markowitz tolerance tightened to 0.125
       1    9.1000000e-03   0.000000e+00   0.000000e+00      0s

Solved in 1 iterations and 0.00 seconds
Optimal objective  9.100000000e-03

Gurobi 6.5.0 (linux64) logging started Wed Mar 23 13:19:43 2016

Optimize a model with 1 rows, 10 columns and 10 nonzeros
Coefficient statistics:
  Matrix range    [1e+00, 1e+00]
  Objective range [1e-02, 3e-01]
  Bounds range    [1e-02, 1e-02]
  RHS range       [5e-02, 5e-02]
Presolve removed 0 rows and 2 columns
Presolve time: 0.00s
Presolved: 1 rows, 8 columns, 8 nonzeros

Iteration    Objective       Primal Inf.    Dual Inf.      Time
       0    1.0000000e-02   5.000000e-02   0.000000e+00      0s
Warning: Markowitz tolerance tightened to 0.125
       1    9.1000000e-03   0.000000e+00   0.000000e+00      0s

Solved in 1 iterations and 0.00 seconds
Optimal objective  9.100000000e-03

Gurobi 6.5.0 (linux64) logging started Thu Mar 24 10:58:22 2016

Optimize a model with 1 rows, 10 columns and 10 nonzeros
Coefficient statistics:
  Matrix range    [1e+00, 1e+00]
  Objective range [1e-02, 3e-01]
  Bounds range    [1e-02, 1e-02]
  RHS range       [4e-02, 4e-02]
Presolve removed 0 rows and 2 columns
Presolve time: 0.00s
Presolved: 1 rows, 8 columns, 8 nonzeros

Iteration    Objective       Primal Inf.    Dual Inf.      Time
       0    1.0000000e-02   5.700000e-02   0.000000e+00      0s
       1    8.8200000e-03   0.000000e+00   0.000000e+00      0s

Solved in 1 iterations and 0.00 seconds
Optimal objective  8.820000000e-03

Gurobi 6.5.0 (linux64) logging started Thu Mar 24 10:59:39 2016

Optimize a model with 1 rows, 10 columns and 10 nonzeros
Coefficient statistics:
  Matrix range    [1e+00, 1e+00]
  Objective range [1e-02, 3e-01]
  Bounds range    [1e-02, 1e-02]
  RHS range       [4e-02, 4e-02]
Presolve removed 0 rows and 2 columns
Presolve time: 0.00s
Presolved: 1 rows, 8 columns, 8 nonzeros

Iteration    Objective       Primal Inf.    Dual Inf.      Time
       0    1.0000000e-02   5.700000e-02   0.000000e+00      0s
       1    8.8200000e-03   0.000000e+00   0.000000e+00      0s

Solved in 1 iterations and 0.00 seconds
Optimal objective  8.820000000e-03

Gurobi 6.5.1 (linux64) logging started Wed Mar 30 22:34:41 2016


Gurobi Optimizer version 6.5.1 build v6.5.1rc3 (linux64)
Copyright (c) 2016, Gurobi Optimization, Inc.


ERROR 10003: Unable to open file 'engine.l' for input


Gurobi 6.5.1 (linux64) logging started Wed Mar 30 22:34:43 2016


Gurobi Optimizer version 6.5.1 build v6.5.1rc3 (linux64)
Copyright (c) 2016, Gurobi Optimization, Inc.

Read LP format model from file engine.lp
Reading time = 0.00 seconds
(null): 5 rows, 12 columns, 44 nonzeros
Optimize a model with 5 rows, 12 columns and 44 nonzeros
Model has 16 quadratic objective terms
Coefficient statistics:
  Matrix range    [4e-03, 1e+00]
  Objective range [1e-01, 4e-01]
  Bounds range    [1e-01, 1e+05]
  RHS range       [1e+00, 1e+00]
Presolve time: 0.00s
Presolved: 5 rows, 12 columns, 44 nonzeros
Presolved model has 16 quadratic objective terms
Ordering time: 0.00s

Barrier statistics:
 Free vars  : 3
 AA' NZ     : 1.900e+01
 Factor NZ  : 3.600e+01
 Factor Ops : 2.040e+02 (less than 1 second per iteration)
 Threads    : 1

                  Objective                Residual
Iter       Primal          Dual         Primal    Dual     Compl     Time
   0   6.02373605e+09 -2.33222911e+10  2.75e+05 3.79e+04  1.39e+08     0s
   1   8.20336180e+06 -6.01131742e+08  8.46e+03 1.17e+03  6.53e+06     0s
   2   5.73525337e+04 -4.36654944e+07  5.90e+02 8.13e+01  5.63e+05     0s
   3   8.89312744e-01 -1.79851482e+05  2.23e+00 3.07e-01  2.76e+03     0s
   4  -2.90313721e-01 -1.02135935e+04  9.30e-02 1.28e-02  2.20e+02     0s
   5  -2.06451416e-01 -1.94489563e+02  1.10e-03 1.52e-04  5.48e+00     0s
   6  -2.10845947e-01 -4.90356445e+00  2.66e-05 3.67e-06  1.32e-01     0s
   7  -3.91601562e-01 -1.53897095e+00  6.16e-07 5.82e-11  4.78e-02     0s
   8  -4.16748047e-01 -5.24261475e-01  7.84e-08 2.58e-13  4.48e-03     0s
   9  -4.32983398e-01 -4.41894531e-01  1.02e-10 9.71e-17  3.74e-04     0s
  10  -4.36462402e-01 -4.36614990e-01  6.20e-09 5.82e-11  7.89e-06     0s
  11  -4.36553955e-01 -4.36614990e-01  2.66e-09 1.04e-16  1.36e-07     0s
  12  -4.36584473e-01 -4.36553955e-01  2.15e-09 5.82e-11  1.54e-09     0s
  13  -4.36553955e-01 -4.36645508e-01  4.07e-10 5.82e-11  1.55e-12     0s

Barrier solved model in 13 iterations and 0.00 seconds
Optimal objective -4.36553955e-01


Gurobi 6.5.1 (linux64) logging started Wed Mar 30 22:35:09 2016

Read LP format model from file engine.lp
Reading time = 0.00 seconds
(null): 5 rows, 12 columns, 44 nonzeros
Changed value of parameter Heuristics to 1.0
   Prev: 0.05  Min: 0.0  Max: 1.0  Default: 0.05
Parameter Cuts unchanged
   Value: -1  Min: -1  Max: 3  Default: -1
Changed value of parameter TimeLimit to 60000.0
   Prev: 1e+100  Min: 0.0  Max: 1e+100  Default: 1e+100
Optimize a model with 5 rows, 12 columns and 44 nonzeros
Model has 16 quadratic objective terms
Coefficient statistics:
  Matrix range    [4e-03, 1e+00]
  Objective range [1e-01, 4e-01]
  Bounds range    [1e-01, 1e+05]
  RHS range       [1e+00, 1e+00]
Presolve time: 0.00s
Presolved: 5 rows, 12 columns, 44 nonzeros
Presolved model has 16 quadratic objective terms
Ordering time: 0.00s

Barrier statistics:
 Free vars  : 3
 AA' NZ     : 1.900e+01
 Factor NZ  : 3.600e+01
 Factor Ops : 2.040e+02 (less than 1 second per iteration)
 Threads    : 1

                  Objective                Residual
Iter       Primal          Dual         Primal    Dual     Compl     Time
   0   6.02373605e+09 -2.33222911e+10  2.75e+05 3.79e+04  1.39e+08     0s
   1   8.20336180e+06 -6.01131742e+08  8.46e+03 1.17e+03  6.53e+06     0s
   2   5.73525337e+04 -4.36654944e+07  5.90e+02 8.13e+01  5.63e+05     0s
   3   8.89312744e-01 -1.79851482e+05  2.23e+00 3.07e-01  2.76e+03     0s
   4  -2.90313721e-01 -1.02135935e+04  9.30e-02 1.28e-02  2.20e+02     0s
   5  -2.06451416e-01 -1.94489563e+02  1.10e-03 1.52e-04  5.48e+00     0s
   6  -2.10845947e-01 -4.90356445e+00  2.66e-05 3.67e-06  1.32e-01     0s
   7  -3.91601562e-01 -1.53897095e+00  6.16e-07 5.82e-11  4.78e-02     0s
   8  -4.16748047e-01 -5.24261475e-01  7.84e-08 2.58e-13  4.48e-03     0s
   9  -4.32983398e-01 -4.41894531e-01  1.02e-10 9.71e-17  3.74e-04     0s
  10  -4.36462402e-01 -4.36614990e-01  6.20e-09 5.82e-11  7.89e-06     0s
  11  -4.36553955e-01 -4.36614990e-01  2.66e-09 1.04e-16  1.36e-07     0s
  12  -4.36584473e-01 -4.36553955e-01  2.15e-09 5.82e-11  1.54e-09     0s
  13  -4.36553955e-01 -4.36645508e-01  4.07e-10 5.82e-11  1.55e-12     0s

Barrier solved model in 13 iterations and 0.00 seconds
Optimal objective -4.36553955e-01

